certificates/rado_a11_c223_N24.cnf
c Rad2 upper bound instance: x1 + 11*x2 - x3 = 223, interval [1,24]
p cnf 24 104
1 9 21 0
-1 -9 -21 0
1 20 22 0
-1 -20 -22 0
2 10 21 0
-2 -10 -21 0
2 21 22 0
-2 -21 -22 0
3 11 21 0
-3 -11 -21 0
3 22 0
-3 -22 0
1 4 20 0
-1 -4 -20 0
4 12 21 0
-4 -12 -21 0
4 22 23 0
-4 -22 -23 0
2 5 20 0
-2 -5 -20 0
5 13 21 0
-5 -13 -21 0
5 22 24 0
-5 -22 -24 0
3 6 20 0
-3 -6 -20 0
6 14 21 0
-6 -14 -21 0
4 7 20 0
-4 -7 -20 0
7 15 21 0
-7 -15 -21 0
5 8 20 0
-5 -8 -20 0
8 16 21 0
-8 -16 -21 0
6 9 20 0
-6 -9 -20 0
9 17 21 0
-9 -17 -21 0
7 10 20 0
-7 -10 -20 0
10 18 21 0
-10 -18 -21 0
8 11 20 0
-8 -11 -20 0
11 19 21 0
-11 -19 -21 0
9 12 20 0
-9 -12 -20 0
12 20 21 0
-12 -20 -21 0
10 13 20 0
-10 -13 -20 0
13 21 0
-13 -21 0
11 14 20 0
-11 -14 -20 0
14 21 22 0
-14 -21 -22 0
1 15 19 0
-1 -15 -19 0
12 15 20 0
-12 -15 -20 0
15 21 23 0
-15 -21 -23 0
2 16 19 0
-2 -16 -19 0
13 16 20 0
-13 -16 -20 0
16 21 24 0
-16 -21 -24 0
3 17 19 0
-3 -17 -19 0
14 17 20 0
-14 -17 -20 0
4 18 19 0
-4 -18 -19 0
15 18 20 0
-15 -18 -20 0
5 19 0
-5 -19 0
16 19 20 0
-16 -19 -20 0
6 19 20 0
-6 -19 -20 0
17 20 0
-17 -20 0
7 19 21 0
-7 -19 -21 0
18 20 21 0
-18 -20 -21 0
8 19 22 0
-8 -19 -22 0
19 20 22 0
-19 -20 -22 0
9 19 23 0
-9 -19 -23 0
20 23 0
-20 -23 0
10 19 24 0
-10 -19 -24 0
20 21 24 0
-20 -21 -24 0
