certificates/rado_a11_c223_N24.drat
-22 20 -24 0
20 -24 0
d -22 20 -24 0
-24 0
22 -20 0
-20 0
17 0
23 0
21 0
-13 0
-15 0
-9 0
10 0
16 0
12 0
18 0
6 0
-2 0
0
